0 2 2 2 2 2 2 2 2 2 
2 0 5 6 10 12 7 15 2 14 
2 5 0 6 10 6 7 6 2 14 
2 6 6 0 10 6 7 7 2 7 
2 10 10 10 0 10 7 10 2 10 
2 12 6 6 10 0 7 11 2 9 
2 7 7 7 7 7 0 7 7 7 
2 15 6 7 10 11 7 0 2 13 
2 2 2 2 2 2 7 2 0 6 
2 14 14 7 10 9 7 13 6 0
